problem_generation/data/GISP/train/er_n=63_m=1134_p=0.60_SET2_setparam=100.00_alpha=0.50_177.lp
maximize
OBJ:100x0 + 100x1 + 100x2 + 100x3 + 100x4 + 100x5 + 100x6 + 100x7 + 100x8 + 100x9 + 100x10 + 100x11 + 100x12 + 100x13 + 100x14 + 100x15 + 100x16 + 100x17 + 100x18 + 100x19 + 100x20 + 100x21 + 100x22 + 100x23 + 100x24 + 100x25 + 100x26 + 100x27 + 100x28 + 100x29 + 100x30 + 100x31 + 100x32 + 100x33 + 100x34 + 100x35 + 100x36 + 100x37 + 100x38 + 100x39 + 100x40 + 100x41 + 100x42 + 100x43 + 100x44 + 100x45 + 100x46 + 100x47 + 100x48 + 100x49 + 100x50 + 100x51 + 100x52 + 100x53 + 100x54 + 100x55 + 100x56 + 100x57 + 100x58 + 100x59 + 100x60 + 100x61 + 100x62 - y15_21 - y7_26 - y47_62 - y29_41 - y21_37 - y11_14 - y41_42 - y2_32 - y10_45 - y3_6 - y10_54 - y14_15 - y22_28 - y3_24 - y14_24 - y22_46 - y14_42 - y14_51 - y36_48 - y15_25 - y17_44 - y47_57 - y17_53 - y6_43 - y40_45 - y48_58 - y6_52 - y40_54 - y10_22 - y10_31 - y2_27 - y25_29 - y10_40 - y33_42 - y3_19 - y43_55 - y28_39 - y36_52 - y5_46 - y17_48 - y28_48 - y9_44 - y5_55 - y9_53 - y21_36 - y6_47 - y40_58 - y10_26 - y10_35 - y2_40 - y43_50 - y13_46 - y16_60 - y17_25 - y36_38 - y17_34 - y5_41 - y5_50 - y28_52 - y9_48 - y5_59 - y6_24 - y6_42 - y40_44 - y10_21 - y2_17 - y20_53 - y10_30 - y10_39 - y12_58 - y23_58 - y2_35 - y3_9 - y32_45 - y43_54 - y13_59 - y5_27 - y17_29 - y5_36 - y36_51 - y5_45 - y6_10 - y9_43 - y6_19 - y9_52 - y50_53 - y39_43 - y20_57 - y12_53 - y12_62 - y23_62 - y32_40 - y51_53 - y13_45 - y16_41 - y1_52 - y16_50 - y9_11 - y17_24 - y9_20 - y6_14 - y21_30 - y30_60 - y42_62 - y20_34 - y10_11 - y39_47 - y20_43 - y23_48 - y20_61 - y13_22 - y1_29 - y13_40 - y1_47 - y16_45 - y35_58 - y46_55 - y9_15 - y5_26 - y9_24 - y49_60 - y6_9 - y6_18 - y27_50 - y8_46 - y30_46 - y42_48 - y0_51 - y20_29 - y39_42 - y12_25 - y2_11 - y31_56 - y1_15 - y12_61 - y1_24 - y1_42 - y24_44 - y1_51 - y16_49 - y9_19 - y15_53 - y38_55 - y6_13 - y8_32 - y19_32 - y27_45 - y8_41 - y19_41 - y27_54 - y11_37 - y19_50 - y8_59 - y12_20 - y31_42 - y12_38 - y12_56 - y45_53 - y24_30 - y45_62 - y16_35 - y38_41 - y5_16 - y49_50 - y15_57 - y38_59 - y49_59 - y7_62 - y8_27 - y0_32 - y11_32 - y8_54 - y42_56 - y0_50 - y11_50 - y20_28 - y11_59 - y12_24 - y23_24 - y39_41 - y4_20 - y41_60 - y12_33 - y52_60 - y4_38 - y45_48 - y1_23 - y24_25 - y1_32 - y37_53 - y15_34 - y5_11 - y57_58 - y26_52 - y49_54 - y8_13 - y18_57 - y27_44 - y19_40 - y27_53 - y0_36 - y8_49 - y19_49 - y30_49 - y11_45 - y20_23 - y20_32 - y33_60 - y25_56 - y4_33 - y22_41 - y34_43 - y53_56 - y34_52 - y3_46 - y37_48 - y22_59 - y37_57 - y26_29 - y7_25 - y18_52 - y0_13 - y7_61 - y8_26 - y48_62 - y19_35 - y11_49 - y41_59 - y52_59 - y4_19 - y33_55 - y14_41 - y3_50 - y18_20 - y15_42 - y26_42 - y18_56 - y8_21 - y11_17 - y29_53 - y8_30 - y40_53 - y0_26 - y29_62 - y40_62 - y41_45 - y4_14 - y10_48 - y25_46 - y44_59 - y22_40 - y3_36 - y14_36 - y3_45 - y7_15 - y26_28 - y7_24 - y18_42 - y48_52 - y40_48 - y21_44 - y6_55 - y29_57 - y33_36 - y33_45 - y52_58 - y2_39 - y33_54 - y25_50 - y3_22 - y22_35 - y3_40 - y14_49 - y36_46 - y47_55 - y17_51 - y29_34 - y8_11 - y40_43 - y48_56 - y11_16 - y29_52 - y40_61 - y10_20 - y25_27 - y10_38 - y10_47 - y2_43 - y10_56 - y51_57 - y3_17 - y3_26 - y32_62 - y3_35 - y14_35 - y3_44 - y28_46 - y36_59 - y5_53 - y6_27 - y0_2 - y21_34 - y40_47 - y6_54 - y29_56 - y10_24 - y2_20 - y54_58 - y10_33 - y2_29 - y33_44 - y10_51 - y2_47 - y3_12 - y32_48 - y22_25 - y43_48 - y43_57 - y13_53 - y35_53 - y16_58 - y17_32 - y36_45 - y17_41 - y36_54 - y9_37 - y5_48 - y9_46 - y28_59 - y58_60 - y21_29 - y29_42 - y40_51 - y21_47 - y2_6 - y32_34 - y3_7 - y32_52 - y24_48 - y3_25 - y35_57 - y17_18 - y9_23 - y36_49 - y9_32 - y5_43 - y36_58 - y5_52 - y20_46 - y2_19 - y10_32 - y12_51 - y24_34 - y51_60 - y13_43 - y24_43 - y32_56 - y24_52 - y24_61 - y5_29 - y28_31 - y17_49 - y6_12 - y9_45 - y6_21 - y58_59 - y9_54 - y27_62 - y8_58 - y4_42 - y23_55 - y1_27 - y13_29 - y4_60 - y16_25 - y32_51 - y16_34 - y35_47 - y1_54 - y13_56 - y46_53 - y9_13 - y5_24 - y5_33 - y17_35 - y28_35 - y6_7 - y5_51 - y6_25 - y27_57 - y50_59 - y30_53 - y19_62 - y0_58 - y39_40 - y2_9 - y31_45 - y31_54 - y4_46 - y13_24 - y53_60 - y32_37 - y16_20 - y24_33 - y16_29 - y24_42 - y46_48 - y38_44 - y9_17 - y49_53 - y9_35 - y6_20 - y27_61 - y0_44 - y19_57 - y0_62 - y39_44 - y2_4 - y20_40 - y31_40 - y20_58 - y4_41 - y23_54 - y53_55 - y4_50 - y24_37 - y35_37 - y16_42 - y46_52 - y38_57 - y7_51 - y18_51 - y18_60 - y30_34 - y19_43 - y30_43 - y27_56 - y0_39 - y8_61 - y31_35 - y12_40 - y1_3 - y12_49 - y13_14 - y4_45 - y34_46 - y45_46 - y37_51 - y1_39 - y37_60 - y5_9 - y15_41 - y26_41 - y5_18 - y49_52 - y15_59 - y27_42 - y11_25 - y30_38 - y27_51 - y19_47 - y42_49 - y30_56 - y20_21 - y0_52 - y11_52 - y52_53 - y31_39 - y23_35 - y4_40 - y34_41 - y34_50 - y16_23 - y45_59 - y37_55 - y14_62 - y26_36 - y5_13 - y18_32 - y15_45 - y15_54 - y26_54 - y27_28 - y19_24 - y0_47 - y11_47 - y20_25 - y12_21 - y4_26 - y33_62 - y1_2 - y1_11 - y22_43 - y34_45 - y14_39 - y37_50 - y26_31 - y18_27 - y7_36 - y15_49 - y18_45 - y8_10 - y7_54 - y8_19 - y18_54 - y27_32 - y11_15 - y8_28 - y19_28 - y0_24 - y19_37 - y0_33 - y0_42 - y12_16 - y10_46 - y44_48 - y25_44 - y33_57 - y22_38 - y3_34 - y3_43 - y37_45 - y22_56 - y45_58 - y3_52 - y14_61 - y15_26 - y15_44 - y26_44 - y48_50 - y19_23 - y6_53 - y29_55 - y40_55 - y0_28 - y25_30 - y4_7 - y25_39 - y22_24 - y2_55 - y3_20 - y3_38 - y22_51
 Subject to
C1: x0+x2-y0_2 <=1 
C2: x0+x3 <=1 
C3: x0+x6 <=1 
C4: x0+x9 <=1 
C5: x0+x13-y0_13 <=1 
C6: x0+x14 <=1 
C7: x0+x15 <=1 
C8: x0+x18 <=1 
C9: x0+x19 <=1 
C10: x0+x20 <=1 
C11: x0+x22 <=1 
C12: x0+x24-y0_24 <=1 
C13: x0+x26-y0_26 <=1 
C14: x0+x28-y0_28 <=1 
C15: x0+x29 <=1 
C16: x0+x31 <=1 
C17: x0+x32-y0_32 <=1 
C18: x0+x33-y0_33 <=1 
C19: x0+x36-y0_36 <=1 
C20: x0+x38 <=1 
C21: x0+x39-y0_39 <=1 
C22: x0+x40 <=1 
C23: x0+x42-y0_42 <=1 
C24: x0+x43 <=1 
C25: x0+x44-y0_44 <=1 
C26: x0+x45 <=1 
C27: x0+x46 <=1 
C28: x0+x47-y0_47 <=1 
C29: x0+x49 <=1 
C30: x0+x50-y0_50 <=1 
C31: x0+x51-y0_51 <=1 
C32: x0+x52-y0_52 <=1 
C33: x0+x53 <=1 
C34: x0+x57 <=1 
C35: x0+x58-y0_58 <=1 
C36: x0+x59 <=1 
C37: x0+x62-y0_62 <=1 
C38: x1+x2-y1_2 <=1 
C39: x1+x3-y1_3 <=1 
C40: x1+x10 <=1 
C41: x1+x11-y1_11 <=1 
C42: x1+x14 <=1 
C43: x1+x15-y1_15 <=1 
C44: x1+x21 <=1 
C45: x1+x23-y1_23 <=1 
C46: x1+x24-y1_24 <=1 
C47: x1+x26 <=1 
C48: x1+x27-y1_27 <=1 
C49: x1+x29-y1_29 <=1 
C50: x1+x30 <=1 
C51: x1+x31 <=1 
C52: x1+x32-y1_32 <=1 
C53: x1+x34 <=1 
C54: x1+x35 <=1 
C55: x1+x37 <=1 
C56: x1+x39-y1_39 <=1 
C57: x1+x42-y1_42 <=1 
C58: x1+x47-y1_47 <=1 
C59: x1+x48 <=1 
C60: x1+x50 <=1 
C61: x1+x51-y1_51 <=1 
C62: x1+x52-y1_52 <=1 
C63: x1+x54-y1_54 <=1 
C64: x1+x55 <=1 
C65: x1+x56 <=1 
C66: x1+x58 <=1 
C67: x1+x59 <=1 
C68: x1+x60 <=1 
C69: x1+x61 <=1 
C70: x2+x4-y2_4 <=1 
C71: x2+x6-y2_6 <=1 
C72: x2+x7 <=1 
C73: x2+x8 <=1 
C74: x2+x9-y2_9 <=1 
C75: x2+x11-y2_11 <=1 
C76: x2+x12 <=1 
C77: x2+x13 <=1 
C78: x2+x14 <=1 
C79: x2+x15 <=1 
C80: x2+x16 <=1 
C81: x2+x17-y2_17 <=1 
C82: x2+x18 <=1 
C83: x2+x19-y2_19 <=1 
C84: x2+x20-y2_20 <=1 
C85: x2+x24 <=1 
C86: x2+x27-y2_27 <=1 
C87: x2+x29-y2_29 <=1 
C88: x2+x30 <=1 
C89: x2+x31 <=1 
C90: x2+x32-y2_32 <=1 
C91: x2+x34 <=1 
C92: x2+x35-y2_35 <=1 
C93: x2+x37 <=1 
C94: x2+x39-y2_39 <=1 
C95: x2+x40-y2_40 <=1 
C96: x2+x41 <=1 
C97: x2+x43-y2_43 <=1 
C98: x2+x44 <=1 
C99: x2+x47-y2_47 <=1 
C100: x2+x52 <=1 
C101: x2+x54 <=1 
C102: x2+x55-y2_55 <=1 
C103: x2+x57 <=1 
C104: x2+x58 <=1 
C105: x2+x60 <=1 
C106: x2+x61 <=1 
C107: x3+x6-y3_6 <=1 
C108: x3+x7-y3_7 <=1 
C109: x3+x8 <=1 
C110: x3+x9-y3_9 <=1 
C111: x3+x11 <=1 
C112: x3+x12-y3_12 <=1 
C113: x3+x14 <=1 
C114: x3+x17-y3_17 <=1 
C115: x3+x19-y3_19 <=1 
C116: x3+x20-y3_20 <=1 
C117: x3+x21 <=1 
C118: x3+x22-y3_22 <=1 
C119: x3+x24-y3_24 <=1 
C120: x3+x25-y3_25 <=1 
C121: x3+x26-y3_26 <=1 
C122: x3+x27 <=1 
C123: x3+x28 <=1 
C124: x3+x30 <=1 
C125: x3+x33 <=1 
C126: x3+x34-y3_34 <=1 
C127: x3+x35-y3_35 <=1 
C128: x3+x36-y3_36 <=1 
C129: x3+x38-y3_38 <=1 
C130: x3+x39 <=1 
C131: x3+x40-y3_40 <=1 
C132: x3+x43-y3_43 <=1 
C133: x3+x44-y3_44 <=1 
C134: x3+x45-y3_45 <=1 
C135: x3+x46-y3_46 <=1 
C136: x3+x47 <=1 
C137: x3+x49 <=1 
C138: x3+x50-y3_50 <=1 
C139: x3+x51 <=1 
C140: x3+x52-y3_52 <=1 
C141: x3+x58 <=1 
C142: x3+x59 <=1 
C143: x3+x61 <=1 
C144: x3+x62 <=1 
C145: x4+x5 <=1 
C146: x4+x6 <=1 
C147: x4+x7-y4_7 <=1 
C148: x4+x10 <=1 
C149: x4+x11 <=1 
C150: x4+x14-y4_14 <=1 
C151: x4+x19-y4_19 <=1 
C152: x4+x20-y4_20 <=1 
C153: x4+x21 <=1 
C154: x4+x26-y4_26 <=1 
C155: x4+x33-y4_33 <=1 
C156: x4+x34 <=1 
C157: x4+x38-y4_38 <=1 
C158: x4+x39 <=1 
C159: x4+x40-y4_40 <=1 
C160: x4+x41-y4_41 <=1 
C161: x4+x42-y4_42 <=1 
C162: x4+x43 <=1 
C163: x4+x45-y4_45 <=1 
C164: x4+x46-y4_46 <=1 
C165: x4+x48 <=1 
C166: x4+x49 <=1 
C167: x4+x50-y4_50 <=1 
C168: x4+x51 <=1 
C169: x4+x53 <=1 
C170: x4+x55 <=1 
C171: x4+x59 <=1 
C172: x4+x60-y4_60 <=1 
C173: x5+x7 <=1 
C174: x5+x8 <=1 
C175: x5+x9-y5_9 <=1 
C176: x5+x10 <=1 
C177: x5+x11-y5_11 <=1 
C178: x5+x13-y5_13 <=1 
C179: x5+x14 <=1 
C180: x5+x16-y5_16 <=1 
C181: x5+x18-y5_18 <=1 
C182: x5+x19 <=1 
C183: x5+x20 <=1 
C184: x5+x21 <=1 
C185: x5+x24-y5_24 <=1 
C186: x5+x26-y5_26 <=1 
C187: x5+x27-y5_27 <=1 
C188: x5+x29-y5_29 <=1 
C189: x5+x31 <=1 
C190: x5+x33-y5_33 <=1 
C191: x5+x34 <=1 
C192: x5+x35 <=1 
C193: x5+x36-y5_36 <=1 
C194: x5+x38 <=1 
C195: x5+x40 <=1 
C196: x5+x41-y5_41 <=1 
C197: x5+x42 <=1 
C198: x5+x43-y5_43 <=1 
C199: x5+x45-y5_45 <=1 
C200: x5+x46-y5_46 <=1 
C201: x5+x48-y5_48 <=1 
C202: x5+x49 <=1 
C203: x5+x50-y5_50 <=1 
C204: x5+x51-y5_51 <=1 
C205: x5+x52-y5_52 <=1 
C206: x5+x53-y5_53 <=1 
C207: x5+x55-y5_55 <=1 
C208: x5+x58 <=1 
C209: x5+x59-y5_59 <=1 
C210: x5+x60 <=1 
C211: x5+x61 <=1 
C212: x5+x62 <=1 
C213: x6+x7-y6_7 <=1 
C214: x6+x9-y6_9 <=1 
C215: x6+x10-y6_10 <=1 
C216: x6+x11 <=1 
C217: x6+x12-y6_12 <=1 
C218: x6+x13-y6_13 <=1 
C219: x6+x14-y6_14 <=1 
C220: x6+x15 <=1 
C221: x6+x16 <=1 
C222: x6+x17 <=1 
C223: x6+x18-y6_18 <=1 
C224: x6+x19-y6_19 <=1 
C225: x6+x20-y6_20 <=1 
C226: x6+x21-y6_21 <=1 
C227: x6+x23 <=1 
C228: x6+x24-y6_24 <=1 
C229: x6+x25-y6_25 <=1 
C230: x6+x26 <=1 
C231: x6+x27-y6_27 <=1 
C232: x6+x31 <=1 
C233: x6+x34 <=1 
C234: x6+x36 <=1 
C235: x6+x40 <=1 
C236: x6+x41 <=1 
C237: x6+x42-y6_42 <=1 
C238: x6+x43-y6_43 <=1 
C239: x6+x44 <=1 
C240: x6+x47-y6_47 <=1 
C241: x6+x52-y6_52 <=1 
C242: x6+x53-y6_53 <=1 
C243: x6+x54-y6_54 <=1 
C244: x6+x55-y6_55 <=1 
C245: x6+x56 <=1 
C246: x6+x59 <=1 
C247: x6+x61 <=1 
C248: x7+x10 <=1 
C249: x7+x12 <=1 
C250: x7+x13 <=1 
C251: x7+x15-y7_15 <=1 
C252: x7+x17 <=1 
C253: x7+x19 <=1 
C254: x7+x21 <=1 
C255: x7+x22 <=1 
C256: x7+x24-y7_24 <=1 
C257: x7+x25-y7_25 <=1 
C258: x7+x26-y7_26 <=1 
C259: x7+x27 <=1 
C260: x7+x30 <=1 
C261: x7+x32 <=1 
C262: x7+x34 <=1 
C263: x7+x36-y7_36 <=1 
C264: x7+x40 <=1 
C265: x7+x42 <=1 
C266: x7+x43 <=1 
C267: x7+x44 <=1 
C268: x7+x47 <=1 
C269: x7+x49 <=1 
C270: x7+x51-y7_51 <=1 
C271: x7+x54-y7_54 <=1 
C272: x7+x55 <=1 
C273: x7+x56 <=1 
C274: x7+x58 <=1 
C275: x7+x61-y7_61 <=1 
C276: x7+x62-y7_62 <=1 
C277: x8+x10-y8_10 <=1 
C278: x8+x11-y8_11 <=1 
C279: x8+x12 <=1 
C280: x8+x13-y8_13 <=1 
C281: x8+x14 <=1 
C282: x8+x19-y8_19 <=1 
C283: x8+x21-y8_21 <=1 
C284: x8+x22 <=1 
C285: x8+x26-y8_26 <=1 
C286: x8+x27-y8_27 <=1 
C287: x8+x28-y8_28 <=1 
C288: x8+x30-y8_30 <=1 
C289: x8+x31 <=1 
C290: x8+x32-y8_32 <=1 
C291: x8+x38 <=1 
C292: x8+x41-y8_41 <=1 
C293: x8+x42 <=1 
C294: x8+x44 <=1 
C295: x8+x45 <=1 
C296: x8+x46-y8_46 <=1 
C297: x8+x49-y8_49 <=1 
C298: x8+x50 <=1 
C299: x8+x52 <=1 
C300: x8+x53 <=1 
C301: x8+x54-y8_54 <=1 
C302: x8+x58-y8_58 <=1 
C303: x8+x59-y8_59 <=1 
C304: x8+x61-y8_61 <=1 
C305: x9+x11-y9_11 <=1 
C306: x9+x12 <=1 
C307: x9+x13-y9_13 <=1 
C308: x9+x15-y9_15 <=1 
C309: x9+x16 <=1 
C310: x9+x17-y9_17 <=1 
C311: x9+x18 <=1 
C312: x9+x19-y9_19 <=1 
C313: x9+x20-y9_20 <=1 
C314: x9+x23-y9_23 <=1 
C315: x9+x24-y9_24 <=1 
C316: x9+x25 <=1 
C317: x9+x27 <=1 
C318: x9+x28 <=1 
C319: x9+x29 <=1 
C320: x9+x32-y9_32 <=1 
C321: x9+x35-y9_35 <=1 
C322: x9+x36 <=1 
C323: x9+x37-y9_37 <=1 
C324: x9+x38 <=1 
C325: x9+x40 <=1 
C326: x9+x42 <=1 
C327: x9+x43-y9_43 <=1 
C328: x9+x44-y9_44 <=1 
C329: x9+x45-y9_45 <=1 
C330: x9+x46-y9_46 <=1 
C331: x9+x47 <=1 
C332: x9+x48-y9_48 <=1 
C333: x9+x49 <=1 
C334: x9+x52-y9_52 <=1 
C335: x9+x53-y9_53 <=1 
C336: x9+x54-y9_54 <=1 
C337: x9+x57 <=1 
C338: x9+x61 <=1 
C339: x9+x62 <=1 
C340: x10+x11-y10_11 <=1 
C341: x10+x12 <=1 
C342: x10+x15 <=1 
C343: x10+x19 <=1 
C344: x10+x20-y10_20 <=1 
C345: x10+x21-y10_21 <=1 
C346: x10+x22-y10_22 <=1 
C347: x10+x24-y10_24 <=1 
C348: x10+x25 <=1 
C349: x10+x26-y10_26 <=1 
C350: x10+x27 <=1 
C351: x10+x28 <=1 
C352: x10+x30-y10_30 <=1 
C353: x10+x31-y10_31 <=1 
C354: x10+x32-y10_32 <=1 
C355: x10+x33-y10_33 <=1 
C356: x10+x35-y10_35 <=1 
C357: x10+x36 <=1 
C358: x10+x37 <=1 
C359: x10+x38-y10_38 <=1 
C360: x10+x39-y10_39 <=1 
C361: x10+x40-y10_40 <=1 
C362: x10+x42 <=1 
C363: x10+x45-y10_45 <=1 
C364: x10+x46-y10_46 <=1 
C365: x10+x47-y10_47 <=1 
C366: x10+x48-y10_48 <=1 
C367: x10+x51-y10_51 <=1 
C368: x10+x52 <=1 
C369: x10+x53 <=1 
C370: x10+x54-y10_54 <=1 
C371: x10+x56-y10_56 <=1 
C372: x10+x58 <=1 
C373: x10+x59 <=1 
C374: x11+x14-y11_14 <=1 
C375: x11+x15-y11_15 <=1 
C376: x11+x16-y11_16 <=1 
C377: x11+x17-y11_17 <=1 
C378: x11+x21 <=1 
C379: x11+x22 <=1 
C380: x11+x24 <=1 
C381: x11+x25-y11_25 <=1 
C382: x11+x26 <=1 
C383: x11+x30 <=1 
C384: x11+x32-y11_32 <=1 
C385: x11+x36 <=1 
C386: x11+x37-y11_37 <=1 
C387: x11+x38 <=1 
C388: x11+x39 <=1 
C389: x11+x42 <=1 
C390: x11+x45-y11_45 <=1 
C391: x11+x47-y11_47 <=1 
C392: x11+x49-y11_49 <=1 
C393: x11+x50-y11_50 <=1 
C394: x11+x52-y11_52 <=1 
C395: x11+x55 <=1 
C396: x11+x58 <=1 
C397: x11+x59-y11_59 <=1 
C398: x11+x60 <=1 
C399: x11+x62 <=1 
C400: x12+x14 <=1 
C401: x12+x15 <=1 
C402: x12+x16-y12_16 <=1 
C403: x12+x20-y12_20 <=1 
C404: x12+x21-y12_21 <=1 
C405: x12+x24-y12_24 <=1 
C406: x12+x25-y12_25 <=1 
C407: x12+x26 <=1 
C408: x12+x28 <=1 
C409: x12+x29 <=1 
C410: x12+x32 <=1 
C411: x12+x33-y12_33 <=1 
C412: x12+x34 <=1 
C413: x12+x35 <=1 
C414: x12+x36 <=1 
C415: x12+x38-y12_38 <=1 
C416: x12+x39 <=1 
C417: x12+x40-y12_40 <=1 
C418: x12+x41 <=1 
C419: x12+x42 <=1 
C420: x12+x44 <=1 
C421: x12+x45 <=1 
C422: x12+x49-y12_49 <=1 
C423: x12+x50 <=1 
C424: x12+x51-y12_51 <=1 
C425: x12+x52 <=1 
C426: x12+x53-y12_53 <=1 
C427: x12+x56-y12_56 <=1 
C428: x12+x57 <=1 
C429: x12+x58-y12_58 <=1 
C430: x12+x61-y12_61 <=1 
C431: x12+x62-y12_62 <=1 
C432: x13+x14-y13_14 <=1 
C433: x13+x16 <=1 
C434: x13+x19 <=1 
C435: x13+x22-y13_22 <=1 
C436: x13+x23 <=1 
C437: x13+x24-y13_24 <=1 
C438: x13+x25 <=1 
C439: x13+x29-y13_29 <=1 
C440: x13+x30 <=1 
C441: x13+x32 <=1 
C442: x13+x35 <=1 
C443: x13+x37 <=1 
C444: x13+x38 <=1 
C445: x13+x40-y13_40 <=1 
C446: x13+x41 <=1 
C447: x13+x43-y13_43 <=1 
C448: x13+x45-y13_45 <=1 
C449: x13+x46-y13_46 <=1 
C450: x13+x47 <=1 
C451: x13+x49 <=1 
C452: x13+x50 <=1 
C453: x13+x52 <=1 
C454: x13+x53-y13_53 <=1 
C455: x13+x55 <=1 
C456: x13+x56-y13_56 <=1 
C457: x13+x57 <=1 
C458: x13+x58 <=1 
C459: x13+x59-y13_59 <=1 
C460: x13+x61 <=1 
C461: x14+x15-y14_15 <=1 
C462: x14+x17 <=1 
C463: x14+x20 <=1 
C464: x14+x21 <=1 
C465: x14+x23 <=1 
C466: x14+x24-y14_24 <=1 
C467: x14+x28 <=1 
C468: x14+x32 <=1 
C469: x14+x35-y14_35 <=1 
C470: x14+x36-y14_36 <=1 
C471: x14+x39-y14_39 <=1 
C472: x14+x41-y14_41 <=1 
C473: x14+x42-y14_42 <=1 
C474: x14+x44 <=1 
C475: x14+x45 <=1 
C476: x14+x46 <=1 
C477: x14+x48 <=1 
C478: x14+x49-y14_49 <=1 
C479: x14+x50 <=1 
C480: x14+x51-y14_51 <=1 
C481: x14+x52 <=1 
C482: x14+x53 <=1 
C483: x14+x56 <=1 
C484: x14+x58 <=1 
C485: x14+x60 <=1 
C486: x14+x61-y14_61 <=1 
C487: x14+x62-y14_62 <=1 
C488: x15+x18 <=1 
C489: x15+x21-y15_21 <=1 
C490: x15+x25-y15_25 <=1 
C491: x15+x26-y15_26 <=1 
C492: x15+x27 <=1 
C493: x15+x28 <=1 
C494: x15+x29 <=1 
C495: x15+x31 <=1 
C496: x15+x32 <=1 
C497: x15+x34-y15_34 <=1 
C498: x15+x35 <=1 
C499: x15+x39 <=1 
C500: x15+x41-y15_41 <=1 
C501: x15+x42-y15_42 <=1 
C502: x15+x43 <=1 
C503: x15+x44-y15_44 <=1 
C504: x15+x45-y15_45 <=1 
C505: x15+x49-y15_49 <=1 
C506: x15+x50 <=1 
C507: x15+x52 <=1 
C508: x15+x53-y15_53 <=1 
C509: x15+x54-y15_54 <=1 
C510: x15+x55 <=1 
C511: x15+x56 <=1 
C512: x15+x57-y15_57 <=1 
C513: x15+x59-y15_59 <=1 
C514: x15+x60 <=1 
C515: x15+x61 <=1 
C516: x16+x18 <=1 
C517: x16+x20-y16_20 <=1 
C518: x16+x23-y16_23 <=1 
C519: x16+x24 <=1 
C520: x16+x25-y16_25 <=1 
C521: x16+x26 <=1 
C522: x16+x28 <=1 
C523: x16+x29-y16_29 <=1 
C524: x16+x34-y16_34 <=1 
C525: x16+x35-y16_35 <=1 
C526: x16+x36 <=1 
C527: x16+x37 <=1 
C528: x16+x41-y16_41 <=1 
C529: x16+x42-y16_42 <=1 
C530: x16+x45-y16_45 <=1 
C531: x16+x49-y16_49 <=1 
C532: x16+x50-y16_50 <=1 
C533: x16+x51 <=1 
C534: x16+x52 <=1 
C535: x16+x55 <=1 
C536: x16+x58-y16_58 <=1 
C537: x16+x60-y16_60 <=1 
C538: x16+x61 <=1 
C539: x17+x18-y17_18 <=1 
C540: x17+x24-y17_24 <=1 
C541: x17+x25-y17_25 <=1 
C542: x17+x27 <=1 
C543: x17+x28 <=1 
C544: x17+x29-y17_29 <=1 
C545: x17+x30 <=1 
C546: x17+x31 <=1 
C547: x17+x32-y17_32 <=1 
C548: x17+x34-y17_34 <=1 
C549: x17+x35-y17_35 <=1 
C550: x17+x36 <=1 
C551: x17+x39 <=1 
C552: x17+x41-y17_41 <=1 
C553: x17+x42 <=1 
C554: x17+x44-y17_44 <=1 
C555: x17+x45 <=1 
C556: x17+x46 <=1 
C557: x17+x47 <=1 
C558: x17+x48-y17_48 <=1 
C559: x17+x49-y17_49 <=1 
C560: x17+x51-y17_51 <=1 
C561: x17+x53-y17_53 <=1 
C562: x17+x55 <=1 
C563: x17+x57 <=1 
C564: x17+x62 <=1 
C565: x18+x20-y18_20 <=1 
C566: x18+x22 <=1 
C567: x18+x25 <=1 
C568: x18+x26 <=1 
C569: x18+x27-y18_27 <=1 
C570: x18+x28 <=1 
C571: x18+x29 <=1 
C572: x18+x31 <=1 
C573: x18+x32-y18_32 <=1 
C574: x18+x38 <=1 
C575: x18+x41 <=1 
C576: x18+x42-y18_42 <=1 
C577: x18+x43 <=1 
C578: x18+x44 <=1 
C579: x18+x45-y18_45 <=1 
C580: x18+x46 <=1 
C581: x18+x48 <=1 
C582: x18+x50 <=1 
C583: x18+x51-y18_51 <=1 
C584: x18+x52-y18_52 <=1 
C585: x18+x53 <=1 
C586: x18+x54-y18_54 <=1 
C587: x18+x55 <=1 
C588: x18+x56-y18_56 <=1 
C589: x18+x57-y18_57 <=1 
C590: x18+x60-y18_60 <=1 
C591: x19+x23-y19_23 <=1 
C592: x19+x24-y19_24 <=1 
C593: x19+x27 <=1 
C594: x19+x28-y19_28 <=1 
C595: x19+x32-y19_32 <=1 
C596: x19+x35-y19_35 <=1 
C597: x19+x37-y19_37 <=1 
C598: x19+x38 <=1 
C599: x19+x40-y19_40 <=1 
C600: x19+x41-y19_41 <=1 
C601: x19+x43-y19_43 <=1 
C602: x19+x47-y19_47 <=1 
C603: x19+x49-y19_49 <=1 
C604: x19+x50-y19_50 <=1 
C605: x19+x54 <=1 
C606: x19+x57-y19_57 <=1 
C607: x19+x59 <=1 
C608: x19+x60 <=1 
C609: x19+x62-y19_62 <=1 
C610: x20+x21-y20_21 <=1 
C611: x20+x23-y20_23 <=1 
C612: x20+x25-y20_25 <=1 
C613: x20+x26 <=1 
C614: x20+x27 <=1 
C615: x20+x28-y20_28 <=1 
C616: x20+x29-y20_29 <=1 
C617: x20+x32-y20_32 <=1 
C618: x20+x34-y20_34 <=1 
C619: x20+x36 <=1 
C620: x20+x40-y20_40 <=1 
C621: x20+x41 <=1 
C622: x20+x43-y20_43 <=1 
C623: x20+x46-y20_46 <=1 
C624: x20+x47 <=1 
C625: x20+x49 <=1 
C626: x20+x50 <=1 
C627: x20+x51 <=1 
C628: x20+x52 <=1 
C629: x20+x53-y20_53 <=1 
C630: x20+x57-y20_57 <=1 
C631: x20+x58-y20_58 <=1 
C632: x20+x61-y20_61 <=1 
C633: x21+x23 <=1 
C634: x21+x24 <=1 
C635: x21+x27 <=1 
C636: x21+x29-y21_29 <=1 
C637: x21+x30-y21_30 <=1 
C638: x21+x32 <=1 
C639: x21+x34-y21_34 <=1 
C640: x21+x36-y21_36 <=1 
C641: x21+x37-y21_37 <=1 
C642: x21+x38 <=1 
C643: x21+x41 <=1 
C644: x21+x42 <=1 
C645: x21+x44-y21_44 <=1 
C646: x21+x45 <=1 
C647: x21+x47-y21_47 <=1 
C648: x21+x55 <=1 
C649: x21+x58 <=1 
C650: x21+x59 <=1 
C651: x21+x61 <=1 
C652: x21+x62 <=1 
C653: x22+x24-y22_24 <=1 
C654: x22+x25-y22_25 <=1 
C655: x22+x26 <=1 
C656: x22+x27 <=1 
C657: x22+x28-y22_28 <=1 
C658: x22+x32 <=1 
C659: x22+x34 <=1 
C660: x22+x35-y22_35 <=1 
C661: x22+x37 <=1 
C662: x22+x38-y22_38 <=1 
C663: x22+x39 <=1 
C664: x22+x40-y22_40 <=1 
C665: x22+x41-y22_41 <=1 
C666: x22+x42 <=1 
C667: x22+x43-y22_43 <=1 
C668: x22+x44 <=1 
C669: x22+x45 <=1 
C670: x22+x46-y22_46 <=1 
C671: x22+x47 <=1 
C672: x22+x50 <=1 
C673: x22+x51-y22_51 <=1 
C674: x22+x53 <=1 
C675: x22+x56-y22_56 <=1 
C676: x22+x57 <=1 
C677: x22+x59-y22_59 <=1 
C678: x22+x61 <=1 
C679: x23+x24-y23_24 <=1 
C680: x23+x35-y23_35 <=1 
C681: x23+x39 <=1 
C682: x23+x41 <=1 
C683: x23+x43 <=1 
C684: x23+x45 <=1 
C685: x23+x48-y23_48 <=1 
C686: x23+x49 <=1 
C687: x23+x50 <=1 
C688: x23+x52 <=1 
C689: x23+x54-y23_54 <=1 
C690: x23+x55-y23_55 <=1 
C691: x23+x58-y23_58 <=1 
C692: x23+x59 <=1 
C693: x23+x62-y23_62 <=1 
C694: x24+x25-y24_25 <=1 
C695: x24+x26 <=1 
C696: x24+x27 <=1 
C697: x24+x30-y24_30 <=1 
C698: x24+x33-y24_33 <=1 
C699: x24+x34-y24_34 <=1 
C700: x24+x37-y24_37 <=1 
C701: x24+x38 <=1 
C702: x24+x40 <=1 
C703: x24+x42-y24_42 <=1 
C704: x24+x43-y24_43 <=1 
C705: x24+x44-y24_44 <=1 
C706: x24+x47 <=1 
C707: x24+x48-y24_48 <=1 
C708: x24+x49 <=1 
C709: x24+x52-y24_52 <=1 
C710: x24+x53 <=1 
C711: x24+x54 <=1 
C712: x24+x56 <=1 
C713: x24+x58 <=1 
C714: x24+x59 <=1 
C715: x24+x61-y24_61 <=1 
C716: x25+x27-y25_27 <=1 
C717: x25+x29-y25_29 <=1 
C718: x25+x30-y25_30 <=1 
C719: x25+x32 <=1 
C720: x25+x36 <=1 
C721: x25+x37 <=1 
C722: x25+x38 <=1 
C723: x25+x39-y25_39 <=1 
C724: x25+x40 <=1 
C725: x25+x43 <=1 
C726: x25+x44-y25_44 <=1 
C727: x25+x46-y25_46 <=1 
C728: x25+x47 <=1 
C729: x25+x49 <=1 
C730: x25+x50-y25_50 <=1 
C731: x25+x51 <=1 
C732: x25+x52 <=1 
C733: x25+x56-y25_56 <=1 
C734: x25+x61 <=1 
C735: x26+x27 <=1 
C736: x26+x28-y26_28 <=1 
C737: x26+x29-y26_29 <=1 
C738: x26+x31-y26_31 <=1 
C739: x26+x36-y26_36 <=1 
C740: x26+x37 <=1 
C741: x26+x38 <=1 
C742: x26+x40 <=1 
C743: x26+x41-y26_41 <=1 
C744: x26+x42-y26_42 <=1 
C745: x26+x43 <=1 
C746: x26+x44-y26_44 <=1 
C747: x26+x45 <=1 
C748: x26+x47 <=1 
C749: x26+x49 <=1 
C750: x26+x50 <=1 
C751: x26+x52-y26_52 <=1 
C752: x26+x54-y26_54 <=1 
C753: x26+x59 <=1 
C754: x27+x28-y27_28 <=1 
C755: x27+x29 <=1 
C756: x27+x30 <=1 
C757: x27+x32-y27_32 <=1 
C758: x27+x41 <=1 
C759: x27+x42-y27_42 <=1 
C760: x27+x44-y27_44 <=1 
C761: x27+x45-y27_45 <=1 
C762: x27+x46 <=1 
C763: x27+x50-y27_50 <=1 
C764: x27+x51-y27_51 <=1 
C765: x27+x52 <=1 
C766: x27+x53-y27_53 <=1 
C767: x27+x54-y27_54 <=1 
C768: x27+x55 <=1 
C769: x27+x56-y27_56 <=1 
C770: x27+x57-y27_57 <=1 
C771: x27+x58 <=1 
C772: x27+x61-y27_61 <=1 
C773: x27+x62-y27_62 <=1 
C774: x28+x29 <=1 
C775: x28+x31-y28_31 <=1 
C776: x28+x32 <=1 
C777: x28+x35-y28_35 <=1 
C778: x28+x37 <=1 
C779: x28+x39-y28_39 <=1 
C780: x28+x42 <=1 
C781: x28+x43 <=1 
C782: x28+x46-y28_46 <=1 
C783: x28+x48-y28_48 <=1 
C784: x28+x50 <=1 
C785: x28+x52-y28_52 <=1 
C786: x28+x54 <=1 
C787: x28+x56 <=1 
C788: x28+x57 <=1 
C789: x28+x58 <=1 
C790: x28+x59-y28_59 <=1 
C791: x28+x60 <=1 
C792: x28+x62 <=1 
C793: x29+x32 <=1 
C794: x29+x34-y29_34 <=1 
C795: x29+x38 <=1 
C796: x29+x40 <=1 
C797: x29+x41-y29_41 <=1 
C798: x29+x42-y29_42 <=1 
C799: x29+x48 <=1 
C800: x29+x49 <=1 
C801: x29+x50 <=1 
C802: x29+x51 <=1 
C803: x29+x52-y29_52 <=1 
C804: x29+x53-y29_53 <=1 
C805: x29+x54 <=1 
C806: x29+x55-y29_55 <=1 
C807: x29+x56-y29_56 <=1 
C808: x29+x57-y29_57 <=1 
C809: x29+x61 <=1 
C810: x29+x62-y29_62 <=1 
C811: x30+x31 <=1 
C812: x30+x32 <=1 
C813: x30+x34-y30_34 <=1 
C814: x30+x38-y30_38 <=1 
C815: x30+x39 <=1 
C816: x30+x40 <=1 
C817: x30+x42 <=1 
C818: x30+x43-y30_43 <=1 
C819: x30+x45 <=1 
C820: x30+x46-y30_46 <=1 
C821: x30+x47 <=1 
C822: x30+x49-y30_49 <=1 
C823: x30+x50 <=1 
C824: x30+x53-y30_53 <=1 
C825: x30+x54 <=1 
C826: x30+x55 <=1 
C827: x30+x56-y30_56 <=1 
C828: x30+x57 <=1 
C829: x30+x59 <=1 
C830: x30+x60-y30_60 <=1 
C831: x30+x61 <=1 
C832: x30+x62 <=1 
C833: x31+x33 <=1 
C834: x31+x35-y31_35 <=1 
C835: x31+x36 <=1 
C836: x31+x37 <=1 
C837: x31+x39-y31_39 <=1 
C838: x31+x40-y31_40 <=1 
C839: x31+x41 <=1 
C840: x31+x42-y31_42 <=1 
C841: x31+x45-y31_45 <=1 
C842: x31+x46 <=1 
C843: x31+x48 <=1 
C844: x31+x49 <=1 
C845: x31+x50 <=1 
C846: x31+x51 <=1 
C847: x31+x53 <=1 
C848: x31+x54-y31_54 <=1 
C849: x31+x55 <=1 
C850: x31+x56-y31_56 <=1 
C851: x32+x34-y32_34 <=1 
C852: x32+x37-y32_37 <=1 
C853: x32+x39 <=1 
C854: x32+x40-y32_40 <=1 
C855: x32+x41 <=1 
C856: x32+x42 <=1 
C857: x32+x43 <=1 
C858: x32+x44 <=1 
C859: x32+x45-y32_45 <=1 
C860: x32+x46 <=1 
C861: x32+x48-y32_48 <=1 
C862: x32+x51-y32_51 <=1 
C863: x32+x52-y32_52 <=1 
C864: x32+x56-y32_56 <=1 
C865: x32+x62-y32_62 <=1 
C866: x33+x36-y33_36 <=1 
C867: x33+x41 <=1 
C868: x33+x42-y33_42 <=1 
C869: x33+x44-y33_44 <=1 
C870: x33+x45-y33_45 <=1 
C871: x33+x47 <=1 
C872: x33+x48 <=1 
C873: x33+x49 <=1 
C874: x33+x50 <=1 
C875: x33+x51 <=1 
C876: x33+x52 <=1 
C877: x33+x53 <=1 
C878: x33+x54-y33_54 <=1 
C879: x33+x55-y33_55 <=1 
C880: x33+x56 <=1 
C881: x33+x57-y33_57 <=1 
C882: x33+x58 <=1 
C883: x33+x60-y33_60 <=1 
C884: x33+x62-y33_62 <=1 
C885: x34+x36 <=1 
C886: x34+x37 <=1 
C887: x34+x39 <=1 
C888: x34+x40 <=1 
C889: x34+x41-y34_41 <=1 
C890: x34+x43-y34_43 <=1 
C891: x34+x45-y34_45 <=1 
C892: x34+x46-y34_46 <=1 
C893: x34+x47 <=1 
C894: x34+x48 <=1 
C895: x34+x49 <=1 
C896: x34+x50-y34_50 <=1 
C897: x34+x52-y34_52 <=1 
C898: x34+x54 <=1 
C899: x34+x56 <=1 
C900: x34+x59 <=1 
C901: x34+x60 <=1 
C902: x34+x62 <=1 
C903: x35+x36 <=1 
C904: x35+x37-y35_37 <=1 
C905: x35+x38 <=1 
C906: x35+x39 <=1 
C907: x35+x40 <=1 
C908: x35+x44 <=1 
C909: x35+x45 <=1 
C910: x35+x47-y35_47 <=1 
C911: x35+x48 <=1 
C912: x35+x49 <=1 
C913: x35+x53-y35_53 <=1 
C914: x35+x54 <=1 
C915: x35+x57-y35_57 <=1 
C916: x35+x58-y35_58 <=1 
C917: x35+x61 <=1 
C918: x36+x38-y36_38 <=1 
C919: x36+x39 <=1 
C920: x36+x41 <=1 
C921: x36+x42 <=1 
C922: x36+x43 <=1 
C923: x36+x44 <=1 
C924: x36+x45-y36_45 <=1 
C925: x36+x46-y36_46 <=1 
C926: x36+x47 <=1 
C927: x36+x48-y36_48 <=1 
C928: x36+x49-y36_49 <=1 
C929: x36+x50 <=1 
C930: x36+x51-y36_51 <=1 
C931: x36+x52-y36_52 <=1 
C932: x36+x54-y36_54 <=1 
C933: x36+x57 <=1 
C934: x36+x58-y36_58 <=1 
C935: x36+x59-y36_59 <=1 
C936: x36+x61 <=1 
C937: x37+x42 <=1 
C938: x37+x43 <=1 
C939: x37+x45-y37_45 <=1 
C940: x37+x46 <=1 
C941: x37+x47 <=1 
C942: x37+x48-y37_48 <=1 
C943: x37+x49 <=1 
C944: x37+x50-y37_50 <=1 
C945: x37+x51-y37_51 <=1 
C946: x37+x53-y37_53 <=1 
C947: x37+x55-y37_55 <=1 
C948: x37+x56 <=1 
C949: x37+x57-y37_57 <=1 
C950: x37+x58 <=1 
C951: x37+x60-y37_60 <=1 
C952: x37+x61 <=1 
C953: x37+x62 <=1 
C954: x38+x40 <=1 
C955: x38+x41-y38_41 <=1 
C956: x38+x42 <=1 
C957: x38+x44-y38_44 <=1 
C958: x38+x45 <=1 
C959: x38+x51 <=1 
C960: x38+x52 <=1 
C961: x38+x53 <=1 
C962: x38+x55-y38_55 <=1 
C963: x38+x56 <=1 
C964: x38+x57-y38_57 <=1 
C965: x38+x58 <=1 
C966: x38+x59-y38_59 <=1 
C967: x38+x60 <=1 
C968: x38+x61 <=1 
C969: x39+x40-y39_40 <=1 
C970: x39+x41-y39_41 <=1 
C971: x39+x42-y39_42 <=1 
C972: x39+x43-y39_43 <=1 
C973: x39+x44-y39_44 <=1 
C974: x39+x45 <=1 
C975: x39+x46 <=1 
C976: x39+x47-y39_47 <=1 
C977: x39+x48 <=1 
C978: x39+x49 <=1 
C979: x39+x50 <=1 
C980: x39+x54 <=1 
C981: x39+x55 <=1 
C982: x39+x59 <=1 
C983: x39+x61 <=1 
C984: x40+x41 <=1 
C985: x40+x43-y40_43 <=1 
C986: x40+x44-y40_44 <=1 
C987: x40+x45-y40_45 <=1 
C988: x40+x46 <=1 
C989: x40+x47-y40_47 <=1 
C990: x40+x48-y40_48 <=1 
C991: x40+x49 <=1 
C992: x40+x51-y40_51 <=1 
C993: x40+x52 <=1 
C994: x40+x53-y40_53 <=1 
C995: x40+x54-y40_54 <=1 
C996: x40+x55-y40_55 <=1 
C997: x40+x58-y40_58 <=1 
C998: x40+x61-y40_61 <=1 
C999: x40+x62-y40_62 <=1 
C1000: x41+x42-y41_42 <=1 
C1001: x41+x45-y41_45 <=1 
C1002: x41+x47 <=1 
C1003: x41+x48 <=1 
C1004: x41+x51 <=1 
C1005: x41+x52 <=1 
C1006: x41+x54 <=1 
C1007: x41+x55 <=1 
C1008: x41+x56 <=1 
C1009: x41+x57 <=1 
C1010: x41+x59-y41_59 <=1 
C1011: x41+x60-y41_60 <=1 
C1012: x41+x61 <=1 
C1013: x42+x43 <=1 
C1014: x42+x48-y42_48 <=1 
C1015: x42+x49-y42_49 <=1 
C1016: x42+x50 <=1 
C1017: x42+x51 <=1 
C1018: x42+x53 <=1 
C1019: x42+x56-y42_56 <=1 
C1020: x42+x58 <=1 
C1021: x42+x60 <=1 
C1022: x42+x62-y42_62 <=1 
C1023: x43+x47 <=1 
C1024: x43+x48-y43_48 <=1 
C1025: x43+x50-y43_50 <=1 
C1026: x43+x52 <=1 
C1027: x43+x54-y43_54 <=1 
C1028: x43+x55-y43_55 <=1 
C1029: x43+x56 <=1 
C1030: x43+x57-y43_57 <=1 
C1031: x43+x59 <=1 
C1032: x43+x60 <=1 
C1033: x43+x61 <=1 
C1034: x44+x48-y44_48 <=1 
C1035: x44+x50 <=1 
C1036: x44+x51 <=1 
C1037: x44+x53 <=1 
C1038: x44+x55 <=1 
C1039: x44+x57 <=1 
C1040: x44+x58 <=1 
C1041: x44+x59-y44_59 <=1 
C1042: x44+x60 <=1 
C1043: x44+x62 <=1 
C1044: x45+x46-y45_46 <=1 
C1045: x45+x47 <=1 
C1046: x45+x48-y45_48 <=1 
C1047: x45+x53-y45_53 <=1 
C1048: x45+x55 <=1 
C1049: x45+x58-y45_58 <=1 
C1050: x45+x59-y45_59 <=1 
C1051: x45+x61 <=1 
C1052: x45+x62-y45_62 <=1 
C1053: x46+x47 <=1 
C1054: x46+x48-y46_48 <=1 
C1055: x46+x52-y46_52 <=1 
C1056: x46+x53-y46_53 <=1 
C1057: x46+x54 <=1 
C1058: x46+x55-y46_55 <=1 
C1059: x46+x58 <=1 
C1060: x47+x49 <=1 
C1061: x47+x52 <=1 
C1062: x47+x53 <=1 
C1063: x47+x55-y47_55 <=1 
C1064: x47+x56 <=1 
C1065: x47+x57-y47_57 <=1 
C1066: x47+x58 <=1 
C1067: x47+x60 <=1 
C1068: x47+x61 <=1 
C1069: x47+x62-y47_62 <=1 
C1070: x48+x50-y48_50 <=1 
C1071: x48+x51 <=1 
C1072: x48+x52-y48_52 <=1 
C1073: x48+x53 <=1 
C1074: x48+x54 <=1 
C1075: x48+x56-y48_56 <=1 
C1076: x48+x58-y48_58 <=1 
C1077: x48+x59 <=1 
C1078: x48+x62-y48_62 <=1 
C1079: x49+x50-y49_50 <=1 
C1080: x49+x52-y49_52 <=1 
C1081: x49+x53-y49_53 <=1 
C1082: x49+x54-y49_54 <=1 
C1083: x49+x55 <=1 
C1084: x49+x56 <=1 
C1085: x49+x58 <=1 
C1086: x49+x59-y49_59 <=1 
C1087: x49+x60-y49_60 <=1 
C1088: x49+x62 <=1 
C1089: x50+x52 <=1 
C1090: x50+x53-y50_53 <=1 
C1091: x50+x54 <=1 
C1092: x50+x55 <=1 
C1093: x50+x58 <=1 
C1094: x50+x59-y50_59 <=1 
C1095: x50+x62 <=1 
C1096: x51+x52 <=1 
C1097: x51+x53-y51_53 <=1 
C1098: x51+x55 <=1 
C1099: x51+x56 <=1 
C1100: x51+x57-y51_57 <=1 
C1101: x51+x59 <=1 
C1102: x51+x60-y51_60 <=1 
C1103: x51+x61 <=1 
C1104: x52+x53-y52_53 <=1 
C1105: x52+x54 <=1 
C1106: x52+x58-y52_58 <=1 
C1107: x52+x59-y52_59 <=1 
C1108: x52+x60-y52_60 <=1 
C1109: x52+x61 <=1 
C1110: x53+x54 <=1 
C1111: x53+x55-y53_55 <=1 
C1112: x53+x56-y53_56 <=1 
C1113: x53+x57 <=1 
C1114: x53+x60-y53_60 <=1 
C1115: x54+x58-y54_58 <=1 
C1116: x55+x57 <=1 
C1117: x55+x58 <=1 
C1118: x55+x59 <=1 
C1119: x56+x57 <=1 
C1120: x56+x58 <=1 
C1121: x56+x59 <=1 
C1122: x56+x60 <=1 
C1123: x56+x61 <=1 
C1124: x56+x62 <=1 
C1125: x57+x58-y57_58 <=1 
C1126: x57+x60 <=1 
C1127: x57+x61 <=1 
C1128: x58+x59-y58_59 <=1 
C1129: x58+x60-y58_60 <=1 
C1130: x58+x61 <=1 
C1131: x58+x62 <=1 
C1132: x59+x61 <=1 
C1133: x59+x62 <=1 
C1134: x61+x62 <=1 

binary
x0
x1
x2
x3
x4
x5
x6
x7
x8
x9
x10
x11
x12
x13
x14
x15
x16
x17
x18
x19
x20
x21
x22
x23
x24
x25
x26
x27
x28
x29
x30
x31
x32
x33
x34
x35
x36
x37
x38
x39
x40
x41
x42
x43
x44
x45
x46
x47
x48
x49
x50
x51
x52
x53
x54
x55
x56
x57
x58
x59
x60
x61
x62
