problem_generation/data/GISP/train/er_n=63_m=1134_p=0.60_SET2_setparam=100.00_alpha=0.50_177.sol
objective value:                                 1277
x4                                                  1 	(obj:100)
x7                                                  1 	(obj:100)
x8                                                  1 	(obj:100)
x20                                                 1 	(obj:100)
x23                                                 1 	(obj:100)
x24                                                 1 	(obj:100)
x25                                                 1 	(obj:100)
x29                                                 1 	(obj:100)
x33                                                 1 	(obj:100)
x35                                                 1 	(obj:100)
x46                                                 1 	(obj:100)
x60                                                 1 	(obj:100)
x62                                                 1 	(obj:100)
y25_29                                              1 	(obj:-1)
y23_62                                              1 	(obj:-1)
y8_46                                               1 	(obj:-1)
y20_29                                              1 	(obj:-1)
y7_62                                               1 	(obj:-1)
y23_24                                              1 	(obj:-1)
y4_20                                               1 	(obj:-1)
y24_25                                              1 	(obj:-1)
y20_23                                              1 	(obj:-1)
y33_60                                              1 	(obj:-1)
y4_33                                               1 	(obj:-1)
y7_25                                               1 	(obj:-1)
y29_62                                              1 	(obj:-1)
y25_46                                              1 	(obj:-1)
y7_24                                               1 	(obj:-1)
y20_46                                              1 	(obj:-1)
y4_60                                               1 	(obj:-1)
y4_46                                               1 	(obj:-1)
y24_33                                              1 	(obj:-1)
y23_35                                              1 	(obj:-1)
y20_25                                              1 	(obj:-1)
y33_62                                              1 	(obj:-1)
y4_7                                                1 	(obj:-1)
